0000000000000000
0000000000100000
0000000000100000
0000000000100000
0000000000100000
0000000000100000
0000000000100000
0000001111100000
0000001000000000
0000010000000000
0000010000000000
0000010000000000
0000010000000100
0000011111111000
0000000000000000
0000000000000000
